objective value:                                  -81
t_x35                                               1 	(obj:-100)
t_y35_342                                           1 	(obj:1)
t_y35_444                                           1 	(obj:1)
t_y35_375                                           1 	(obj:1)
t_y35_115                                           1 	(obj:1)
t_y35_229                                           1 	(obj:1)
t_y35_421                                           1 	(obj:1)
t_y35_191                                           1 	(obj:1)
t_y35_230                                           1 	(obj:1)
t_y35_119                                           1 	(obj:1)
t_y35_325                                           1 	(obj:1)
t_y35_44                                            1 	(obj:1)
t_y6_35                                             1 	(obj:1)
t_y35_64                                            1 	(obj:1)
t_y35_359                                           1 	(obj:1)
t_y35_69                                            1 	(obj:1)
t_y35_450                                           1 	(obj:1)
t_y35_222                                           1 	(obj:1)
t_y35_81                                            1 	(obj:1)
t_y35_252                                           1 	(obj:1)
